c turning on binary mode checking
c parsing input formula with 202048 variables and 780985 clauses
c finished parsing, read 2171045 bytes from proof file
c detected empty clause; start verification via backward checking
c 2272 of 780985 clauses in core                            
c 732 of 90372 lemmas in core using 18451 resolution steps
c 0 RAT lemmas in core; 55 redundant literals in core lemmas
s VERIFIED
c verification time: 0.949 seconds
